p cnf 126 126
-1 2 3 0
1 -2 0
1 -3 0
-4 5 6 0
4 -5 0
4 -6 0
-7 8 9 0
7 -8 0
7 -9 0
-10 11 12 0
10 -11 0
10 -12 0
-13 14 15 0
13 -14 0
13 -15 0
-16 17 18 0
16 -17 0
16 -18 0
-19 20 21 0
19 -20 0
19 -21 0
-22 23 24 0
22 -23 0
22 -24 0
-25 26 27 0
25 -26 0
25 -27 0
-28 29 30 0
28 -29 0
28 -30 0
-31 32 33 0
31 -32 0
31 -33 0
-34 35 36 0
34 -35 0
34 -36 0
-37 38 39 0
37 -38 0
37 -39 0
-40 41 42 0
40 -41 0
40 -42 0
-43 44 45 0
43 -44 0
43 -45 0
-46 47 48 0
46 -47 0
46 -48 0
-49 50 51 0
49 -50 0
49 -51 0
-52 53 54 0
52 -53 0
52 -54 0
-55 56 57 0
55 -56 0
55 -57 0
-58 59 60 0
58 -59 0
58 -60 0
-61 62 63 0
61 -62 0
61 -63 0
-64 65 66 0
64 -65 0
64 -66 0
-67 68 69 0
67 -68 0
67 -69 0
-70 71 72 0
70 -71 0
70 -72 0
-73 74 75 0
73 -74 0
73 -75 0
-76 77 78 0
76 -77 0
76 -78 0
-79 80 81 0
79 -80 0
79 -81 0
-82 83 84 0
82 -83 0
82 -84 0
-85 86 87 0
85 -86 0
85 -87 0
-88 89 90 0
88 -89 0
88 -90 0
-91 92 93 0
91 -92 0
91 -93 0
-94 95 96 0
94 -95 0
94 -96 0
-97 98 99 0
97 -98 0
97 -99 0
-100 101 102 0
100 -101 0
100 -102 0
-103 104 105 0
103 -104 0
103 -105 0
-106 107 108 0
106 -107 0
106 -108 0
-109 110 111 0
109 -110 0
109 -111 0
-112 113 114 0
112 -113 0
112 -114 0
-115 116 117 0
115 -116 0
115 -117 0
-118 119 120 0
118 -119 0
118 -120 0
-121 122 123 0
121 -122 0
121 -123 0
-124 125 126 0
124 -125 0
124 -126 0
